169488031
140262926
483734912
491097912
303416095
477302881
436649602
301362139
133935212
221594758
285644467
456356356
489302486
330014738
491167636
278911505
246558412
298681929
399531626
428923627
336739401
220736391
432335041
234327908
309593963
175556420
194178727
160409810
65651368
202784888
204529693
406762738
261989333
400251899
352098674
328003137
425021683
53544692
158420987
281420743
474052893
105973222
485972546
129075676
477194324
386877797
349982424
305984825
406748303
249876999
161794564
203060787
326714191
380247766
466922220
420421280
290201407
252978376
385829634
450539762
